(declare-fun cmp.i.i_22_43 () (_ BitVec 1))
(declare-fun i25.i.i_22_41 () (_ BitVec 64))
(declare-fun i23.i.i_22_39 () (_ BitVec 64))
(declare-fun i24.i.i_22_40 () (_ BitVec 64))
(declare-fun dst_reg_22_9 () (_ BitVec 64))
(declare-fun dst_reg_22_8 () (_ BitVec 64))
(declare-fun i20.i.i_22_34 () (_ BitVec 64))
(declare-fun and6.i.i.i_22_38 () (_ BitVec 64))
(declare-fun i18.i.i_22_33 () (_ BitVec 64))
(declare-fun and.i.i.i_22_36 () (_ BitVec 64))
(declare-fun dst_reg_22_5 () (_ BitVec 64))
(declare-fun dst_reg_22_4 () (_ BitVec 64))
(declare-fun src_reg1.sroa.22.0.copyload_22_32 () (_ BitVec 64))
(declare-fun src_reg_22_23 () (_ BitVec 64))
(declare-fun src_reg1.sroa.17.0.copyload_22_31 () (_ BitVec 64))
(declare-fun src_reg_22_22 () (_ BitVec 64))
(declare-fun src_reg1.sroa.10.0.copyload_22_30 () (_ BitVec 64))
(declare-fun src_reg_22_19 () (_ BitVec 64))
(declare-fun src_reg_22_27 () (_ BitVec 8))
(declare-fun src_reg_22_26 () (_ BitVec 32))
(declare-fun src_reg_22_25 () (_ BitVec 32))
(declare-fun src_reg_22_24 () (_ BitVec 32))
(declare-fun src_reg_22_21 () (_ BitVec 64))
(declare-fun src_reg_22_20 () (_ BitVec 64))
(declare-fun src_reg_22_18 () (_ BitVec 64))
(declare-fun src_reg_22_17 () (_ BitVec 32))
(declare-fun src_reg_22_16 () (_ BitVec 32))
(declare-fun src_reg_22_15 () (_ BitVec 32))
(declare-fun src_reg_22_14 () (_ BitVec 32))
(declare-fun dst_reg_22_13 () (_ BitVec 8))
(declare-fun dst_reg_22_12 () (_ BitVec 32))
(declare-fun dst_reg_22_11 () (_ BitVec 32))
(declare-fun dst_reg_22_10 () (_ BitVec 32))
(declare-fun dst_reg_22_7 () (_ BitVec 64))
(declare-fun dst_reg_22_6 () (_ BitVec 64))
(declare-fun dst_reg_22_3 () (_ BitVec 32))
(declare-fun dst_reg_22_2 () (_ BitVec 32))
(declare-fun dst_reg_22_1 () (_ BitVec 32))
(declare-fun dst_reg_22_0 () (_ BitVec 32))
(declare-fun and8.i.i_22_47 () (_ BitVec 64))
(declare-fun and6.i.i_22_45 () (_ BitVec 64))
(declare-fun if.then.i.i_coerce_reg_to_size.exit.i_22_78 () Bool)
(declare-fun if.else.i.i_coerce_reg_to_size.exit.i_22_77 () Bool)
(declare-fun dst_reg_22_62 () (_ BitVec 8))
(declare-fun dst_reg_22_61 () (_ BitVec 32))
(declare-fun dst_reg_22_60 () (_ BitVec 32))
(declare-fun dst_reg_22_59 () (_ BitVec 32))
(declare-fun dst_reg_22_58 () (_ BitVec 64))
(declare-fun dst_reg_22_57 () (_ BitVec 64))
(declare-fun dst_reg_22_56 () (_ BitVec 64))
(declare-fun dst_reg_22_55 () (_ BitVec 64))
(declare-fun dst_reg_22_54 () (_ BitVec 64))
(declare-fun dst_reg_22_53 () (_ BitVec 64))
(declare-fun dst_reg_22_52 () (_ BitVec 32))
(declare-fun dst_reg_22_51 () (_ BitVec 32))
(declare-fun dst_reg_22_50 () (_ BitVec 32))
(declare-fun dst_reg_22_49 () (_ BitVec 32))
(declare-fun src_reg_22_76 () (_ BitVec 8))
(declare-fun src_reg_22_75 () (_ BitVec 32))
(declare-fun src_reg_22_74 () (_ BitVec 32))
(declare-fun src_reg_22_73 () (_ BitVec 32))
(declare-fun src_reg_22_72 () (_ BitVec 64))
(declare-fun src_reg_22_71 () (_ BitVec 64))
(declare-fun src_reg_22_70 () (_ BitVec 64))
(declare-fun src_reg_22_69 () (_ BitVec 64))
(declare-fun src_reg_22_68 () (_ BitVec 64))
(declare-fun src_reg_22_67 () (_ BitVec 64))
(declare-fun src_reg_22_66 () (_ BitVec 32))
(declare-fun src_reg_22_65 () (_ BitVec 32))
(declare-fun src_reg_22_64 () (_ BitVec 32))
(declare-fun src_reg_22_63 () (_ BitVec 32))
(declare-fun tobool.not.i.i_22_96 () (_ BitVec 1))
(declare-fun and6.i.i6.i_22_83 () (_ BitVec 64))
(declare-fun storemerge.i20.i_22_94 () (_ BitVec 64))
(declare-fun and8.i17.i_22_90 () (_ BitVec 64))
(declare-fun cmp.i15.i_22_86 () (_ BitVec 1))
(declare-fun src_reg1.sroa.17.0_22_92 () (_ BitVec 64))
(declare-fun and6.i16.i_22_88 () (_ BitVec 64))
(declare-fun i25.i13.i_22_84 () (_ BitVec 64))
(declare-fun i27.i.i_22_81 () (_ BitVec 64))
(declare-fun storemerge.i.i_22_79 () (_ BitVec 64))
(declare-fun cmp18.not.i.not_22_97 () (_ BitVec 1))
(declare-fun cmp24.old.i_22_98 () (_ BitVec 1))
(declare-fun cmp.i.i.i.i_22_136 () (_ BitVec 1))
(declare-fun sw.default.i___reg_bound_offset.exit.i_22_184 () Bool)
(declare-fun if.end.i.i.i.i___reg_bound_offset.exit.i_22_183 () Bool)
(declare-fun neg.i.i.i_22_202 () (_ BitVec 64))
(declare-fun or.i.i.i_22_199 () (_ BitVec 64))
(declare-fun and4.i.i.i_22_203 () (_ BitVec 64))
(declare-fun and.i1.i.i_22_200 () (_ BitVec 64))
(declare-fun and6.i.i302.i_22_124 () (_ BitVec 64))
(declare-fun retval.sroa.3.0.i.i.i_22_198 () (_ BitVec 64))
(declare-fun and.i.i301.i_22_122 () (_ BitVec 64))
(declare-fun retval.sroa.0.0.i.i.i_22_196 () (_ BitVec 64))
(declare-fun sub.i.i.i_22_193 () (_ BitVec 64))
(declare-fun cmp.i.i.i_22_188 () (_ BitVec 1))
(declare-fun and.i.i336.i_22_194 () (_ BitVec 64))
(declare-fun i.i333.i_22_132 () (_ BitVec 64))
(declare-fun notmask.i.i.i_22_191 () (_ BitVec 64))
(declare-fun sh_prom.i.i.i_22_189 () (_ BitVec 64))
(declare-fun retval.0.i.i.i.i_22_185 () (_ BitVec 32))
(declare-fun phi.bo_22_182 () (_ BitVec 32))
(declare-fun src_reg_22_259 () (_ BitVec 8))
(declare-fun src_reg_22_231 () (_ BitVec 8))
(declare-fun src_reg_22_258 () (_ BitVec 32))
(declare-fun src_reg_22_230 () (_ BitVec 32))
(declare-fun src_reg_22_257 () (_ BitVec 32))
(declare-fun src_reg_22_229 () (_ BitVec 32))
(declare-fun src_reg_22_256 () (_ BitVec 32))
(declare-fun src_reg_22_228 () (_ BitVec 32))
(declare-fun src_reg_22_255 () (_ BitVec 64))
(declare-fun src_reg_22_227 () (_ BitVec 64))
(declare-fun src_reg_22_254 () (_ BitVec 64))
(declare-fun src_reg_22_226 () (_ BitVec 64))
(declare-fun src_reg_22_253 () (_ BitVec 64))
(declare-fun src_reg_22_225 () (_ BitVec 64))
(declare-fun src_reg_22_252 () (_ BitVec 64))
(declare-fun src_reg_22_224 () (_ BitVec 64))
(declare-fun src_reg_22_251 () (_ BitVec 64))
(declare-fun src_reg_22_223 () (_ BitVec 64))
(declare-fun src_reg_22_250 () (_ BitVec 64))
(declare-fun src_reg_22_222 () (_ BitVec 64))
(declare-fun src_reg_22_249 () (_ BitVec 32))
(declare-fun src_reg_22_221 () (_ BitVec 32))
(declare-fun src_reg_22_248 () (_ BitVec 32))
(declare-fun src_reg_22_220 () (_ BitVec 32))
(declare-fun src_reg_22_247 () (_ BitVec 32))
(declare-fun src_reg_22_219 () (_ BitVec 32))
(declare-fun src_reg_22_246 () (_ BitVec 32))
(declare-fun src_reg_22_218 () (_ BitVec 32))
(declare-fun dst_reg_22_245 () (_ BitVec 8))
(declare-fun dst_reg_22_217 () (_ BitVec 8))
(declare-fun dst_reg_22_244 () (_ BitVec 32))
(declare-fun dst_reg_22_216 () (_ BitVec 32))
(declare-fun dst_reg_22_243 () (_ BitVec 32))
(declare-fun dst_reg_22_215 () (_ BitVec 32))
(declare-fun dst_reg_22_242 () (_ BitVec 32))
(declare-fun dst_reg_22_214 () (_ BitVec 32))
(declare-fun dst_reg_22_241 () (_ BitVec 64))
(declare-fun dst_reg_22_213 () (_ BitVec 64))
(declare-fun dst_reg_22_240 () (_ BitVec 64))
(declare-fun dst_reg_22_212 () (_ BitVec 64))
(declare-fun dst_reg_22_239 () (_ BitVec 64))
(declare-fun dst_reg_22_211 () (_ BitVec 64))
(declare-fun dst_reg_22_238 () (_ BitVec 64))
(declare-fun dst_reg_22_210 () (_ BitVec 64))
(declare-fun dst_reg_22_237 () (_ BitVec 64))
(declare-fun dst_reg_22_209 () (_ BitVec 64))
(declare-fun dst_reg_22_236 () (_ BitVec 64))
(declare-fun dst_reg_22_208 () (_ BitVec 64))
(declare-fun dst_reg_22_235 () (_ BitVec 32))
(declare-fun dst_reg_22_207 () (_ BitVec 32))
(declare-fun dst_reg_22_234 () (_ BitVec 32))
(declare-fun dst_reg_22_206 () (_ BitVec 32))
(declare-fun dst_reg_22_233 () (_ BitVec 32))
(declare-fun dst_reg_22_205 () (_ BitVec 32))
(declare-fun dst_reg_22_232 () (_ BitVec 32))
(declare-fun dst_reg_22_204 () (_ BitVec 32))
(declare-fun xor.i.i.i_22_134 () (_ BitVec 64))
(declare-fun i20.i300.i_22_120 () (_ BitVec 64))
(declare-fun i18.i298.i_22_119 () (_ BitVec 64))
(declare-fun add.i.i.i335.i_22_180 () (_ BitVec 32))
(declare-fun i.i.i.i.i.i.neg_22_179 () (_ BitVec 32))
(declare-fun num.4.i.i.i.i.i_22_176 () (_ BitVec 32))
(declare-fun word.addr.4.lobit.i.i.i.i.i.neg_22_178 () (_ BitVec 64))
(declare-fun word.addr.4.i.i.i.i.i_22_175 () (_ BitVec 64))
(declare-fun num.3.i.i.i.i.i_22_168 () (_ BitVec 32))
(declare-fun sub22.i.i.i.i.i_22_172 () (_ BitVec 32))
(declare-fun tobool20.not.i.i.i.i.i_22_170 () (_ BitVec 1))
(declare-fun word.addr.3.i.i.i.i.i_22_167 () (_ BitVec 64))
(declare-fun shl23.i.i.i.i.i_22_174 () (_ BitVec 64))
(declare-fun num.2.i.i.i.i.i_22_160 () (_ BitVec 32))
(declare-fun sub16.i.i.i.i.i_22_164 () (_ BitVec 32))
(declare-fun tobool14.not.i.i.i.i.i_22_162 () (_ BitVec 1))
(declare-fun word.addr.2.i.i.i.i.i_22_159 () (_ BitVec 64))
(declare-fun shl17.i.i.i.i.i_22_166 () (_ BitVec 64))
(declare-fun num.1.i.i.i.i.i_22_152 () (_ BitVec 32))
(declare-fun sub10.i.i.i.i.i_22_156 () (_ BitVec 32))
(declare-fun tobool8.not.i.i.i.i.i_22_154 () (_ BitVec 1))
(declare-fun word.addr.1.i.i.i.i.i_22_151 () (_ BitVec 64))
(declare-fun shl11.i.i.i.i.i_22_158 () (_ BitVec 64))
(declare-fun spec.select17.i.i.i.i.i_22_144 () (_ BitVec 32))
(declare-fun sub4.i.i.i.i.i_22_148 () (_ BitVec 32))
(declare-fun tobool2.not.i.i.i.i.i_22_146 () (_ BitVec 1))
(declare-fun spec.select.i.i.i.i.i_22_141 () (_ BitVec 64))
(declare-fun shl5.i.i.i.i.i_22_150 () (_ BitVec 64))
(declare-fun tobool.not.i.i.i.i.i_22_138 () (_ BitVec 1))
(declare-fun shl.i.i.i.i.i_22_140 () (_ BitVec 64))
(assert (let ((a!1 (and (= tobool.not.i.i_22_96 #b0)
                (or (= cmp.i.i_22_43 #b0) (= cmp.i.i_22_43 #b1))))
      (a!2 (and (= tobool.not.i.i_22_96 #b1)
                (or (= cmp.i.i_22_43 #b0) (= cmp.i.i_22_43 #b1))))
      (a!10 (and (= src_reg_22_63 src_reg_22_218)
                 (= src_reg_22_64 src_reg_22_219)
                 (= src_reg_22_65 src_reg_22_220)
                 (= src_reg_22_66 src_reg_22_221)
                 (= src_reg_22_67 src_reg_22_222)
                 (= src_reg_22_68 src_reg_22_223)
                 (= src_reg_22_69 src_reg_22_224)
                 (= src_reg_22_70 src_reg_22_225)
                 (= src_reg_22_71 src_reg_22_226)
                 (= src_reg_22_72 src_reg_22_227)
                 (= src_reg_22_73 src_reg_22_228)
                 (= src_reg_22_74 src_reg_22_229)
                 (= src_reg_22_75 src_reg_22_230)
                 (= src_reg_22_76 src_reg_22_231)
                 (= #x00000001 dst_reg_22_204)
                 (= dst_reg_22_50 dst_reg_22_205)
                 (= dst_reg_22_51 dst_reg_22_206)
                 (= dst_reg_22_52 dst_reg_22_207)
                 (= #x0000000000000000 dst_reg_22_208)
                 (= #xffffffffffffffff dst_reg_22_209)
                 (= #x8000000000000000 dst_reg_22_210)
                 (= #x7fffffffffffffff dst_reg_22_211)
                 (= #x0000000000000000 dst_reg_22_212)
                 (= #xffffffffffffffff dst_reg_22_213)
                 (= #x00000000 dst_reg_22_214)
                 (= dst_reg_22_60 dst_reg_22_215)
                 (= dst_reg_22_61 dst_reg_22_216)
                 (= dst_reg_22_62 dst_reg_22_217)))
      (a!16 (and (=> if.else.i.i_coerce_reg_to_size.exit.i_22_77
                     (= storemerge.i.i_22_79 #x00000000ffffffff))
                 (=> if.then.i.i_coerce_reg_to_size.exit.i_22_78
                     (= storemerge.i.i_22_79 and8.i.i_22_47))
                 (= dst_reg_22_57 i27.i.i_22_81)
                 (= and6.i.i6.i_22_83
                    (bvand src_reg1.sroa.10.0.copyload_22_30 #x00000000ffffffff))
                 (= i25.i13.i_22_84
                    (bvxor src_reg1.sroa.22.0.copyload_22_32
                           src_reg1.sroa.17.0.copyload_22_31))
                 (ite (bvult i25.i13.i_22_84 #x0000000100000000)
                      (= cmp.i15.i_22_86 #b1)
                      (= cmp.i15.i_22_86 #b0))
                 (= and6.i16.i_22_88
                    (bvand src_reg1.sroa.17.0.copyload_22_31 #x00000000ffffffff))
                 (= and8.i17.i_22_90
                    (bvand src_reg1.sroa.22.0.copyload_22_32 #x00000000ffffffff))
                 (ite (= cmp.i15.i_22_86 #b1)
                      (= src_reg1.sroa.17.0_22_92 and6.i16.i_22_88)
                      (= src_reg1.sroa.17.0_22_92 #x0000000000000000))
                 (ite (= cmp.i15.i_22_86 #b1)
                      (= storemerge.i20.i_22_94 and8.i17.i_22_90)
                      (= storemerge.i20.i_22_94 #x00000000ffffffff))
                 (ite (= and6.i.i6.i_22_83 #x0000000000000000)
                      (= tobool.not.i.i_22_96 #b1)
                      (= tobool.not.i.i_22_96 #b0))
                 (=> (= cmp.i.i_22_43 #b1)
                     (and (= #x00000001 src_reg_22_63)
                          (= src_reg_22_15 src_reg_22_64)
                          (= src_reg_22_16 src_reg_22_65)
                          (= src_reg_22_17 src_reg_22_66)
                          (= src_reg_22_18 src_reg_22_67)
                          (= src_reg_22_19 src_reg_22_68)
                          (= src_reg_22_20 src_reg_22_69)
                          (= src_reg_22_21 src_reg_22_70)
                          (= src_reg_22_22 src_reg_22_71)
                          (= src_reg_22_23 src_reg_22_72)
                          (= src_reg_22_24 src_reg_22_73)
                          (= src_reg_22_25 src_reg_22_74)
                          (= src_reg_22_26 src_reg_22_75)
                          (= src_reg_22_27 src_reg_22_76)
                          (= #x00000001 dst_reg_22_49)
                          (= dst_reg_22_1 dst_reg_22_50)
                          (= dst_reg_22_2 dst_reg_22_51)
                          (= dst_reg_22_3 dst_reg_22_52)
                          (= and.i.i.i_22_36 dst_reg_22_53)
                          (= and6.i.i.i_22_38 dst_reg_22_54)
                          (= dst_reg_22_6 dst_reg_22_55)
                          (= dst_reg_22_7 dst_reg_22_56)
                          (= and6.i.i_22_45 dst_reg_22_57)
                          (= dst_reg_22_9 dst_reg_22_58)
                          (= dst_reg_22_10 dst_reg_22_59)
                          (= dst_reg_22_11 dst_reg_22_60)
                          (= dst_reg_22_12 dst_reg_22_61)
                          (= dst_reg_22_13 dst_reg_22_62)))
                 (=> (= cmp.i.i_22_43 #b0)
                     (and (= #x00000001 src_reg_22_63)
                          (= src_reg_22_15 src_reg_22_64)
                          (= src_reg_22_16 src_reg_22_65)
                          (= src_reg_22_17 src_reg_22_66)
                          (= src_reg_22_18 src_reg_22_67)
                          (= src_reg_22_19 src_reg_22_68)
                          (= src_reg_22_20 src_reg_22_69)
                          (= src_reg_22_21 src_reg_22_70)
                          (= src_reg_22_22 src_reg_22_71)
                          (= src_reg_22_23 src_reg_22_72)
                          (= src_reg_22_24 src_reg_22_73)
                          (= src_reg_22_25 src_reg_22_74)
                          (= src_reg_22_26 src_reg_22_75)
                          (= src_reg_22_27 src_reg_22_76)
                          (= #x00000001 dst_reg_22_49)
                          (= dst_reg_22_1 dst_reg_22_50)
                          (= dst_reg_22_2 dst_reg_22_51)
                          (= dst_reg_22_3 dst_reg_22_52)
                          (= and.i.i.i_22_36 dst_reg_22_53)
                          (= and6.i.i.i_22_38 dst_reg_22_54)
                          (= dst_reg_22_6 dst_reg_22_55)
                          (= dst_reg_22_7 dst_reg_22_56)
                          (= #x0000000000000000 dst_reg_22_57)
                          (= dst_reg_22_9 dst_reg_22_58)
                          (= dst_reg_22_10 dst_reg_22_59)
                          (= dst_reg_22_11 dst_reg_22_60)
                          (= dst_reg_22_12 dst_reg_22_61)
                          (= dst_reg_22_13 dst_reg_22_62)))
                 (= if.else.i.i_coerce_reg_to_size.exit.i_22_77
                    (= cmp.i.i_22_43 #b0))
                 (= if.then.i.i_coerce_reg_to_size.exit.i_22_78
                    (= cmp.i.i_22_43 #b1))))
      (a!17 (=> (= cmp.i.i_22_43 #b1)
                (and (= and6.i.i_22_45 (bvand i23.i.i_22_39 #x00000000ffffffff))
                     (= and8.i.i_22_47 (bvand i24.i.i_22_40 #x00000000ffffffff))))))
(let ((a!3 (or (and (= cmp24.old.i_22_98 #b0) a!1)
               (and (= cmp18.not.i.not_22_97 #b1) a!2)))
      (a!6 (=> a!1
               (and (ite (bvugt src_reg1.sroa.17.0_22_92 storemerge.i20.i_22_94)
                         (= cmp24.old.i_22_98 #b1)
                         (= cmp24.old.i_22_98 #b0)))))
      (a!7 (=> a!2
               (and (ite (= src_reg1.sroa.17.0_22_92 storemerge.i20.i_22_94)
                         (= cmp18.not.i.not_22_97 #b1)
                         (= cmp18.not.i.not_22_97 #b0)))))
      (a!9 (or (and (= cmp24.old.i_22_98 #b1) a!1)
               (and (= cmp18.not.i.not_22_97 #b0) a!2))))
(let ((a!4 (=> (and (= cmp.i.i.i.i_22_136 #b0)
                    (and (= tobool.not.i.i_22_96 #b1) a!3))
               (and (ite (bvult xor.i.i.i_22_134 #x0000000100000000)
                         (= tobool.not.i.i.i.i.i_22_138 #b1)
                         (= tobool.not.i.i.i.i.i_22_138 #b0))
                    (= shl.i.i.i.i.i_22_140
                       (bvshl xor.i.i.i_22_134 #x0000000000000020))
                    (ite (= tobool.not.i.i.i.i.i_22_138 #b1)
                         (= spec.select.i.i.i.i.i_22_141 shl.i.i.i.i.i_22_140)
                         (= spec.select.i.i.i.i.i_22_141 xor.i.i.i_22_134))
                    (ite (= tobool.not.i.i.i.i.i_22_138 #b1)
                         (= spec.select17.i.i.i.i.i_22_144 #x0000001f)
                         (= spec.select17.i.i.i.i.i_22_144 #x0000003f))
                    (ite (bvult spec.select.i.i.i.i.i_22_141 #x0001000000000000)
                         (= tobool2.not.i.i.i.i.i_22_146 #b1)
                         (= tobool2.not.i.i.i.i.i_22_146 #b0))
                    (= sub4.i.i.i.i.i_22_148
                       (bvadd spec.select17.i.i.i.i.i_22_144 #xfffffff0))
                    (= shl5.i.i.i.i.i_22_150
                       (bvshl spec.select.i.i.i.i.i_22_141 #x0000000000000010))
                    (ite (= tobool2.not.i.i.i.i.i_22_146 #b1)
                         (= word.addr.1.i.i.i.i.i_22_151 shl5.i.i.i.i.i_22_150)
                         (= word.addr.1.i.i.i.i.i_22_151
                            spec.select.i.i.i.i.i_22_141))
                    (ite (= tobool2.not.i.i.i.i.i_22_146 #b1)
                         (= num.1.i.i.i.i.i_22_152 sub4.i.i.i.i.i_22_148)
                         (= num.1.i.i.i.i.i_22_152
                            spec.select17.i.i.i.i.i_22_144))
                    (ite (bvult word.addr.1.i.i.i.i.i_22_151 #x0100000000000000)
                         (= tobool8.not.i.i.i.i.i_22_154 #b1)
                         (= tobool8.not.i.i.i.i.i_22_154 #b0))
                    (= sub10.i.i.i.i.i_22_156
                       (bvadd num.1.i.i.i.i.i_22_152 #xfffffff8))
                    (= shl11.i.i.i.i.i_22_158
                       (bvshl word.addr.1.i.i.i.i.i_22_151 #x0000000000000008))
                    (ite (= tobool8.not.i.i.i.i.i_22_154 #b1)
                         (= word.addr.2.i.i.i.i.i_22_159 shl11.i.i.i.i.i_22_158)
                         (= word.addr.2.i.i.i.i.i_22_159
                            word.addr.1.i.i.i.i.i_22_151))
                    (ite (= tobool8.not.i.i.i.i.i_22_154 #b1)
                         (= num.2.i.i.i.i.i_22_160 sub10.i.i.i.i.i_22_156)
                         (= num.2.i.i.i.i.i_22_160 num.1.i.i.i.i.i_22_152))
                    (ite (bvult word.addr.2.i.i.i.i.i_22_159 #x1000000000000000)
                         (= tobool14.not.i.i.i.i.i_22_162 #b1)
                         (= tobool14.not.i.i.i.i.i_22_162 #b0))
                    (= sub16.i.i.i.i.i_22_164
                       (bvadd num.2.i.i.i.i.i_22_160 #xfffffffc))
                    (= shl17.i.i.i.i.i_22_166
                       (bvshl word.addr.2.i.i.i.i.i_22_159 #x0000000000000004))
                    (ite (= tobool14.not.i.i.i.i.i_22_162 #b1)
                         (= word.addr.3.i.i.i.i.i_22_167 shl17.i.i.i.i.i_22_166)
                         (= word.addr.3.i.i.i.i.i_22_167
                            word.addr.2.i.i.i.i.i_22_159))
                    (ite (= tobool14.not.i.i.i.i.i_22_162 #b1)
                         (= num.3.i.i.i.i.i_22_168 sub16.i.i.i.i.i_22_164)
                         (= num.3.i.i.i.i.i_22_168 num.2.i.i.i.i.i_22_160))
                    (ite (bvult word.addr.3.i.i.i.i.i_22_167 #x4000000000000000)
                         (= tobool20.not.i.i.i.i.i_22_170 #b1)
                         (= tobool20.not.i.i.i.i.i_22_170 #b0))
                    (= sub22.i.i.i.i.i_22_172
                       (bvadd num.3.i.i.i.i.i_22_168 #x000000fe))
                    (= shl23.i.i.i.i.i_22_174
                       (bvshl word.addr.3.i.i.i.i.i_22_167 #x0000000000000002))
                    (ite (= tobool20.not.i.i.i.i.i_22_170 #b1)
                         (= word.addr.4.i.i.i.i.i_22_175 shl23.i.i.i.i.i_22_174)
                         (= word.addr.4.i.i.i.i.i_22_175
                            word.addr.3.i.i.i.i.i_22_167))
                    (ite (= tobool20.not.i.i.i.i.i_22_170 #b1)
                         (= num.4.i.i.i.i.i_22_176 sub22.i.i.i.i.i_22_172)
                         (= num.4.i.i.i.i.i_22_176 num.3.i.i.i.i.i_22_168))
                    (= word.addr.4.lobit.i.i.i.i.i.neg_22_178
                       (bvlshr word.addr.4.i.i.i.i.i_22_175 #x000000000000003f))
                    (= i.i.i.i.i.i.neg_22_179
                       ((_ extract 31 0) word.addr.4.lobit.i.i.i.i.i.neg_22_178))
                    (= add.i.i.i335.i_22_180
                       (bvadd num.4.i.i.i.i.i_22_176 i.i.i.i.i.i.neg_22_179))
                    (= phi.bo_22_182 (bvand add.i.i.i335.i_22_180 #x000000ff)))))
      (a!5 (=> (and (= tobool.not.i.i_22_96 #b1) a!3)
               (and (= #x0000000000000000 i18.i298.i_22_119)
                    (= #xffffffffffffffff i20.i300.i_22_120)
                    (= and.i.i301.i_22_122
                       (bvand i18.i298.i_22_119 #x00000000ffffffff))
                    (= and6.i.i302.i_22_124
                       (bvand i20.i300.i_22_120 #x00000000ffffffff))
                    (= #x0000000000000000 i.i333.i_22_132)
                    (= xor.i.i.i_22_134
                       (bvxor i.i333.i_22_132 #x00000000ffffffff))
                    (ite (= xor.i.i.i_22_134 #x0000000000000000)
                         (= cmp.i.i.i.i_22_136 #b1)
                         (= cmp.i.i.i.i_22_136 #b0)))))
      (a!8 (or (and (= cmp.i.i.i.i_22_136 #b0)
                    (and (= tobool.not.i.i_22_96 #b1) a!3))
               (and (= cmp.i.i.i.i_22_136 #b1)
                    (and (= tobool.not.i.i_22_96 #b1) a!3))))
      (a!13 (= if.end.i.i.i.i___reg_bound_offset.exit.i_22_183
               (and (= cmp.i.i.i.i_22_136 #b0)
                    (and (= tobool.not.i.i_22_96 #b1) a!3))))
      (a!14 (= sw.default.i___reg_bound_offset.exit.i_22_184
               (and (= cmp.i.i.i.i_22_136 #b1)
                    (and (= tobool.not.i.i_22_96 #b1) a!3)))))
(let ((a!11 (and (=> a!8
                     (and (= src_reg_22_63 src_reg_22_218)
                          (= src_reg_22_64 src_reg_22_219)
                          (= src_reg_22_65 src_reg_22_220)
                          (= src_reg_22_66 src_reg_22_221)
                          (= src_reg_22_67 src_reg_22_222)
                          (= src_reg_22_68 src_reg_22_223)
                          (= src_reg_22_69 src_reg_22_224)
                          (= src_reg_22_70 src_reg_22_225)
                          (= src_reg_22_71 src_reg_22_226)
                          (= src_reg_22_72 src_reg_22_227)
                          (= src_reg_22_73 src_reg_22_228)
                          (= src_reg_22_74 src_reg_22_229)
                          (= src_reg_22_75 src_reg_22_230)
                          (= src_reg_22_76 src_reg_22_231)
                          (= #x00000001 dst_reg_22_204)
                          (= dst_reg_22_50 dst_reg_22_205)
                          (= dst_reg_22_51 dst_reg_22_206)
                          (= dst_reg_22_52 dst_reg_22_207)
                          (= and4.i.i.i_22_203 dst_reg_22_208)
                          (= and.i1.i.i_22_200 dst_reg_22_209)
                          (= #x0000000000000000 dst_reg_22_210)
                          (= #x00000000ffffffff dst_reg_22_211)
                          (= #x0000000000000000 dst_reg_22_212)
                          (= #x00000000ffffffff dst_reg_22_213)
                          (= dst_reg_22_59 dst_reg_22_214)
                          (= dst_reg_22_60 dst_reg_22_215)
                          (= dst_reg_22_61 dst_reg_22_216)
                          (= dst_reg_22_62 dst_reg_22_217)))
                 (=> (and (= tobool.not.i.i_22_96 #b0) a!3) a!10)
                 (=> a!9 a!10)
                 (= dst_reg_22_204 dst_reg_22_232)
                 (= dst_reg_22_205 dst_reg_22_233)
                 (= dst_reg_22_206 dst_reg_22_234)
                 (= dst_reg_22_207 dst_reg_22_235)
                 (= dst_reg_22_208 dst_reg_22_236)
                 (= dst_reg_22_209 dst_reg_22_237)
                 (= dst_reg_22_210 dst_reg_22_238)
                 (= dst_reg_22_211 dst_reg_22_239)
                 (= dst_reg_22_212 dst_reg_22_240)
                 (= dst_reg_22_213 dst_reg_22_241)
                 (= dst_reg_22_214 dst_reg_22_242)
                 (= dst_reg_22_215 dst_reg_22_243)
                 (= dst_reg_22_216 dst_reg_22_244)
                 (= dst_reg_22_217 dst_reg_22_245)
                 (= src_reg_22_218 src_reg_22_246)
                 (= src_reg_22_219 src_reg_22_247)
                 (= src_reg_22_220 src_reg_22_248)
                 (= src_reg_22_221 src_reg_22_249)
                 (= src_reg_22_222 src_reg_22_250)
                 (= src_reg_22_223 src_reg_22_251)
                 (= src_reg_22_224 src_reg_22_252)
                 (= src_reg_22_225 src_reg_22_253)
                 (= src_reg_22_226 src_reg_22_254)
                 (= src_reg_22_227 src_reg_22_255)
                 (= src_reg_22_228 src_reg_22_256)
                 (= src_reg_22_229 src_reg_22_257)
                 (= src_reg_22_230 src_reg_22_258)
                 (= src_reg_22_231 src_reg_22_259)))
      (a!15 (=> a!8
                (and (=> if.end.i.i.i.i___reg_bound_offset.exit.i_22_183
                         (= retval.0.i.i.i.i_22_185 phi.bo_22_182))
                     (=> sw.default.i___reg_bound_offset.exit.i_22_184
                         (= retval.0.i.i.i.i_22_185 #x00000000))
                     (ite (bvugt retval.0.i.i.i.i_22_185 #x0000003f)
                          (= cmp.i.i.i_22_188 #b1)
                          (= cmp.i.i.i_22_188 #b0))
                     (= sh_prom.i.i.i_22_189
                        ((_ zero_extend 32) retval.0.i.i.i.i_22_185))
                     (= notmask.i.i.i_22_191
                        (bvshl #xffffffffffffffff sh_prom.i.i.i_22_189))
                     (= sub.i.i.i_22_193
                        (bvxor notmask.i.i.i_22_191 #xffffffffffffffff))
                     (= and.i.i336.i_22_194
                        (bvand notmask.i.i.i_22_191 i.i333.i_22_132))
                     (ite (= cmp.i.i.i_22_188 #b1)
                          (= retval.sroa.0.0.i.i.i_22_196 #x0000000000000000)
                          (= retval.sroa.0.0.i.i.i_22_196 and.i.i336.i_22_194))
                     (ite (= cmp.i.i.i_22_188 #b1)
                          (= retval.sroa.3.0.i.i.i_22_198 #x00000000ffffffff)
                          (= retval.sroa.3.0.i.i.i_22_198 sub.i.i.i_22_193))
                     (= or.i.i.i_22_199
                        (bvor retval.sroa.0.0.i.i.i_22_196 and.i.i301.i_22_122))
                     (= and.i1.i.i_22_200
                        (bvand retval.sroa.3.0.i.i.i_22_198
                               and6.i.i302.i_22_124))
                     (= neg.i.i.i_22_202
                        (bvxor and.i1.i.i_22_200 #xffffffffffffffff))
                     (= and4.i.i.i_22_203
                        (bvand or.i.i.i_22_199 neg.i.i.i_22_202))
                     a!13
                     a!14))))
(let ((a!12 (=> (or a!8 (and (= tobool.not.i.i_22_96 #b0) a!3) a!9) a!11)))
  (and a!4
       a!5
       a!6
       a!7
       a!12
       a!15
       (=> (or (= cmp.i.i_22_43 #b0) (= cmp.i.i_22_43 #b1)) a!16)
       a!17
       (= dst_reg_22_0 dst_reg_22_0)
       (= dst_reg_22_1 dst_reg_22_1)
       (= dst_reg_22_2 dst_reg_22_2)
       (= dst_reg_22_3 dst_reg_22_3)
       (= dst_reg_22_4 dst_reg_22_4)
       (= dst_reg_22_5 dst_reg_22_5)
       (= dst_reg_22_6 dst_reg_22_6)
       (= dst_reg_22_7 dst_reg_22_7)
       (= dst_reg_22_8 dst_reg_22_8)
       (= dst_reg_22_9 dst_reg_22_9)
       (= dst_reg_22_10 dst_reg_22_10)
       (= dst_reg_22_11 dst_reg_22_11)
       (= dst_reg_22_12 dst_reg_22_12)
       (= dst_reg_22_13 dst_reg_22_13)
       (= src_reg_22_14 src_reg_22_14)
       (= src_reg_22_15 src_reg_22_15)
       (= src_reg_22_16 src_reg_22_16)
       (= src_reg_22_17 src_reg_22_17)
       (= src_reg_22_18 src_reg_22_18)
       (= src_reg_22_19 src_reg_22_19)
       (= src_reg_22_20 src_reg_22_20)
       (= src_reg_22_21 src_reg_22_21)
       (= src_reg_22_22 src_reg_22_22)
       (= src_reg_22_23 src_reg_22_23)
       (= src_reg_22_24 src_reg_22_24)
       (= src_reg_22_25 src_reg_22_25)
       (= src_reg_22_26 src_reg_22_26)
       (= src_reg_22_27 src_reg_22_27)
       (= src_reg_22_19 src_reg1.sroa.10.0.copyload_22_30)
       (= src_reg_22_22 src_reg1.sroa.17.0.copyload_22_31)
       (= src_reg_22_23 src_reg1.sroa.22.0.copyload_22_32)
       (= dst_reg_22_4 i18.i.i_22_33)
       (= dst_reg_22_5 i20.i.i_22_34)
       (= and.i.i.i_22_36 (bvand i18.i.i_22_33 #x00000000ffffffff))
       (= and6.i.i.i_22_38 (bvand i20.i.i_22_34 #x00000000ffffffff))
       (= dst_reg_22_8 i23.i.i_22_39)
       (= dst_reg_22_9 i24.i.i_22_40)
       (= i25.i.i_22_41 (bvxor i24.i.i_22_40 i23.i.i_22_39))
       (ite (bvult i25.i.i_22_41 #x0000000100000000)
            (= cmp.i.i_22_43 #b1)
            (= cmp.i.i_22_43 #b0)))))))))

;{"dst_reg":["dst_reg_22_0",[""],"dst_reg_22_1","dst_reg_22_2","dst_reg_22_3",["dst_reg_22_4","dst_reg_22_5"],"dst_reg_22_6","dst_reg_22_7","dst_reg_22_8","dst_reg_22_9","","","dst_reg_22_10","dst_reg_22_11","dst_reg_22_12"],"src_reg":["src_reg_22_14",[""],"src_reg_22_15","src_reg_22_16","src_reg_22_17",["src_reg_22_18","src_reg_22_19"],"src_reg_22_20","src_reg_22_21","src_reg_22_22","src_reg_22_23","","","src_reg_22_24","src_reg_22_25","src_reg_22_26"]}
;{"dst_reg":["dst_reg_22_232",[""],"dst_reg_22_233","dst_reg_22_234","dst_reg_22_235",["dst_reg_22_236","dst_reg_22_237"],"dst_reg_22_238","dst_reg_22_239","dst_reg_22_240","dst_reg_22_241","","","dst_reg_22_242","dst_reg_22_243","dst_reg_22_244"],"src_reg":["src_reg_22_246",[""],"src_reg_22_247","src_reg_22_248","src_reg_22_249",["src_reg_22_250","src_reg_22_251"],"src_reg_22_252","src_reg_22_253","src_reg_22_254","src_reg_22_255","","","src_reg_22_256","src_reg_22_257","src_reg_22_258"]}
